20 90
4 10
19 16
19 25
26 6
35 18
25 17
41 4
17 14
14 1
36 5
20 10
36 5
11 5
20 30
40 12
16 20
9 2
32 18
48 13
4 12
22 5
16 14
43 21
40 25
31 23
10 29
18 29
47 27
25 21
11 20
8 13
37 27
25 21
31 22
18 11
41 6
37 29
21 25
17 6
7 23
37 7
39 24
9 6
19 13
7 26
48 23
2 18
24 15
48 17
8 27
1 18
11 2
49 1
17 28
33 17
39 12
47 23
25 19
22 9
28 29
44 13
2 27
36 25
34 4
28 2
45 29
35 16
9 28
24 17
39 29
30 6
46 30
23 24
46 21
2 21
25 14
5 10
20 3
4 27
49 18
29 3
15 13
25 19
39 15
14 27
26 21
12 26
30 15
49 8
37 12
